(declare-fun bvlambda_48_ () (_ BitVec 2))
(declare-fun bvlambda_49_ () (_ BitVec 3))
(declare-fun bvlambda_89_ ()Bool         )
(declare-fun a152 () (Array (_ BitVec 1) (_ BitVec 5)))
(assert
(let (($e1 (_ bv0 1)))
(let (($e186 (concat bvlambda_48_ bvlambda_49_)))
(let (($e187 (store a152 true         $e186)))
(let (($e189 (select $e187 (bvnot bvlambda_89_))))
(let (($e190 (concat bvlambda_89_ $e189)))
(let (($e459 (concat $e190 $e1         )))
(let (($e468 (concat $e1          $e186)))
(let (($e617 (concat $e468       $e1         )))
                  (bvult        $e459  $e617)
                                                                                                                                                                                                                                                                                                                                                                                                                                                                                                                                                                                                                                                                                                                                                                                                                                                                                                                                                                                                                                                                                                                                                                                                                                                                                                                                                                                                                                                                                                                                                                                                                                                                                                                                                                                                                                                                                                                                                                                                                                                                                                                                                                                                                                                                                                                                                                                                                                                                                                                                                                                                                                  )                                                                                                                                                    )        )                                                                                                                                                                                                                                                                            )) ))                                                                                     ))
